602 10
3 3 3 3 3 3 3 3 3 3
0  0 0 0 0 0 0 0 0 0 0  60 2 12 22 32 42 52 62 72 82 92 102 112 122 132 142 152 162 172 182 192 202 212 222 232 242 252 262 272 282 292 302 312 322 332 342 352 362 372 382 392 402 412 422 432 442 452 462 472 482 492 502 512 522 532 542 552 562 572 582 592
32  0 0 0 0 0 0 0 0 1 0  1 3
81  0 1 0 0 0 0 0 0 0 0  1 4
55  0 0 0 0 1 0 0 0 0 0  1 5
40  0 0 0 0 0 0 0 1 0 0  1 6
6  1 0 0 0 0 0 0 0 0 0  1 7
19  0 0 0 0 0 1 0 0 0 0  1 8
81  0 0 0 0 0 0 0 0 0 1  1 9
37  0 0 0 1 0 0 0 0 0 0  1 10
40  0 0 1 0 0 0 0 0 0 0  1 11
9  0 0 0 0 0 0 1 0 0 0  1 602
70  0 0 1 0 0 0 0 0 0 0  1 13
55  0 0 0 1 0 0 0 0 0 0  1 14
21  0 0 0 0 0 0 0 1 0 0  1 15
64  0 0 0 0 1 0 0 0 0 0  1 16
46  0 1 0 0 0 0 0 0 0 0  1 17
25  0 0 0 0 0 0 0 0 1 0  1 18
65  0 0 0 0 0 0 0 0 0 1  1 19
77  1 0 0 0 0 0 0 0 0 0  1 20
65  0 0 0 0 0 1 0 0 0 0  1 21
15  0 0 0 0 0 0 1 0 0 0  1 602
84  0 0 0 0 0 0 0 1 0 0  1 23
89  0 0 0 0 1 0 0 0 0 0  1 24
24  0 0 0 1 0 0 0 0 0 0  1 25
44  0 1 0 0 0 0 0 0 0 0  1 26
85  0 0 1 0 0 0 0 0 0 0  1 27
31  0 0 0 0 0 0 0 0 1 0  1 28
29  0 0 0 0 0 0 0 0 0 1  1 29
83  0 0 0 0 0 0 1 0 0 0  1 30
37  0 0 0 0 0 1 0 0 0 0  1 31
40  1 0 0 0 0 0 0 0 0 0  1 602
80  0 0 0 0 1 0 0 0 0 0  1 33
59  0 0 0 0 0 1 0 0 0 0  1 34
8  1 0 0 0 0 0 0 0 0 0  1 35
30  0 0 1 0 0 0 0 0 0 0  1 36
77  0 0 0 0 0 0 1 0 0 0  1 37
38  0 0 0 1 0 0 0 0 0 0  1 38
80  0 1 0 0 0 0 0 0 0 0  1 39
56  0 0 0 0 0 0 0 1 0 0  1 40
41  0 0 0 0 0 0 0 0 0 1  1 41
97  0 0 0 0 0 0 0 0 1 0  1 602
40  0 0 0 0 0 0 1 0 0 0  1 43
71  0 0 1 0 0 0 0 0 0 0  1 44
91  1 0 0 0 0 0 0 0 0 0  1 45
7  0 0 0 0 0 0 0 1 0 0  1 46
59  0 0 0 0 0 0 0 0 0 1  1 47
80  0 0 0 0 0 0 0 0 1 0  1 48
50  0 0 0 1 0 0 0 0 0 0  1 49
56  0 0 0 0 0 1 0 0 0 0  1 50
17  0 1 0 0 0 0 0 0 0 0  1 51
88  0 0 0 0 1 0 0 0 0 0  1 602
36  0 0 0 0 0 0 0 1 0 0  1 53
10  0 0 0 0 0 0 0 0 0 1  1 54
45  1 0 0 0 0 0 0 0 0 0  1 55
9  0 0 0 0 0 0 1 0 0 0  1 56
54  0 0 0 0 1 0 0 0 0 0  1 57
96  0 0 0 0 0 0 0 0 1 0  1 58
8  0 0 1 0 0 0 0 0 0 0  1 59
77  0 0 0 0 0 1 0 0 0 0  1 60
29  0 1 0 0 0 0 0 0 0 0  1 61
58  0 0 0 1 0 0 0 0 0 0  1 602
99  0 0 0 0 0 0 1 0 0 0  1 63
86  0 0 0 0 0 0 0 0 1 0  1 64
92  0 0 0 1 0 0 0 0 0 0  1 65
28  1 0 0 0 0 0 0 0 0 0  1 66
98  0 1 0 0 0 0 0 0 0 0  1 67
70  0 0 0 0 1 0 0 0 0 0  1 68
87  0 0 0 0 0 1 0 0 0 0  1 69
96  0 0 0 0 0 0 0 0 0 1  1 70
73  0 0 1 0 0 0 0 0 0 0  1 71
27  0 0 0 0 0 0 0 1 0 0  1 602
95  0 1 0 0 0 0 0 0 0 0  1 73
85  0 0 0 1 0 0 0 0 0 0  1 74
56  0 0 0 0 0 1 0 0 0 0  1 75
52  0 0 0 0 1 0 0 0 0 0  1 76
59  1 0 0 0 0 0 0 0 0 0  1 77
41  0 0 1 0 0 0 0 0 0 0  1 78
81  0 0 0 0 0 0 1 0 0 0  1 79
39  0 0 0 0 0 0 0 0 1 0  1 80
32  0 0 0 0 0 0 0 0 0 1  1 81
92  0 0 0 0 0 0 0 1 0 0  1 602
7  0 1 0 0 0 0 0 0 0 0  1 83
69  0 0 0 0 0 0 0 1 0 0  1 84
93  0 0 0 0 1 0 0 0 0 0  1 85
27  0 0 0 0 0 0 1 0 0 0  1 86
22  0 0 0 0 0 1 0 0 0 0  1 87
88  1 0 0 0 0 0 0 0 0 0  1 88
45  0 0 0 0 0 0 0 0 1 0  1 89
60  0 0 0 1 0 0 0 0 0 0  1 90
49  0 0 0 0 0 0 0 0 0 1  1 91
12  0 0 1 0 0 0 0 0 0 0  1 602
33  0 0 0 0 0 0 0 1 0 0  1 93
61  0 0 1 0 0 0 0 0 0 0  1 94
44  0 0 0 0 0 0 0 0 1 0  1 95
26  0 0 0 0 0 1 0 0 0 0  1 96
84  0 1 0 0 0 0 0 0 0 0  1 97
82  0 0 0 0 0 0 1 0 0 0  1 98
68  0 0 0 1 0 0 0 0 0 0  1 99
21  1 0 0 0 0 0 0 0 0 0  1 100
71  0 0 0 0 0 0 0 0 0 1  1 101
99  0 0 0 0 1 0 0 0 0 0  1 602
43  0 0 0 0 0 0 0 0 1 0  1 103
72  1 0 0 0 0 0 0 0 0 0  1 104
30  0 0 0 0 1 0 0 0 0 0  1 105
98  0 0 0 0 0 1 0 0 0 0  1 106
75  0 0 0 0 0 0 0 0 0 1  1 107
26  0 1 0 0 0 0 0 0 0 0  1 108
8  0 0 0 0 0 0 0 1 0 0  1 109
74  0 0 0 0 0 0 1 0 0 0  1 110
19  0 0 0 1 0 0 0 0 0 0  1 111
38  0 0 1 0 0 0 0 0 0 0  1 602
19  0 0 0 0 0 0 1 0 0 0  1 113
67  0 0 1 0 0 0 0 0 0 0  1 114
73  0 0 0 0 0 0 0 0 1 0  1 115
85  0 1 0 0 0 0 0 0 0 0  1 116
26  0 0 0 0 0 0 0 0 0 1  1 117
39  0 0 0 0 1 0 0 0 0 0  1 118
9  0 0 0 0 0 0 0 1 0 0  1 119
23  1 0 0 0 0 0 0 0 0 0  1 120
13  0 0 0 0 0 1 0 0 0 0  1 121
43  0 0 0 1 0 0 0 0 0 0  1 602
72  0 0 0 0 0 0 0 0 1 0  1 123
46  0 0 0 0 0 0 0 1 0 0  1 124
80  0 0 0 0 0 1 0 0 0 0  1 125
93  0 0 0 1 0 0 0 0 0 0  1 126
61  0 0 1 0 0 0 0 0 0 0  1 127
7  0 0 0 0 1 0 0 0 0 0  1 128
42  0 0 0 0 0 0 0 0 0 1  1 129
50  0 1 0 0 0 0 0 0 0 0  1 130
55  1 0 0 0 0 0 0 0 0 0  1 131
57  0 0 0 0 0 0 1 0 0 0  1 602
99  0 0 0 0 1 0 0 0 0 0  1 133
91  1 0 0 0 0 0 0 0 0 0  1 134
11  0 0 0 0 0 0 0 0 0 1  1 135
68  0 0 0 0 0 1 0 0 0 0  1 136
43  0 0 0 0 0 0 0 1 0 0  1 137
96  0 0 0 1 0 0 0 0 0 0  1 138
72  0 0 1 0 0 0 0 0 0 0  1 139
11  0 0 0 0 0 0 0 0 1 0  1 140
60  0 0 0 0 0 0 1 0 0 0  1 141
68  0 1 0 0 0 0 0 0 0 0  1 602
69  0 0 0 0 0 0 0 0 0 1  1 143
43  1 0 0 0 0 0 0 0 0 0  1 144
12  0 0 0 1 0 0 0 0 0 0  1 145
40  0 0 0 0 0 0 0 0 1 0  1 146
70  0 1 0 0 0 0 0 0 0 0  1 147
74  0 0 0 0 0 0 1 0 0 0  1 148
34  0 0 1 0 0 0 0 0 0 0  1 149
7  0 0 0 0 0 1 0 0 0 0  1 150
30  0 0 0 0 1 0 0 0 0 0  1 151
84  0 0 0 0 0 0 0 1 0 0  1 602
99  0 0 0 0 0 0 0 1 0 0  1 153
27  0 0 0 1 0 0 0 0 0 0  1 154
59  0 0 0 0 1 0 0 0 0 0  1 155
72  0 0 0 0 0 1 0 0 0 0  1 156
9  0 0 1 0 0 0 0 0 0 0  1 157
45  0 0 0 0 0 0 1 0 0 0  1 158
49  1 0 0 0 0 0 0 0 0 0  1 159
63  0 0 0 0 0 0 0 0 0 1  1 160
69  0 1 0 0 0 0 0 0 0 0  1 161
60  0 0 0 0 0 0 0 0 1 0  1 602
75  1 0 0 0 0 0 0 0 0 0  1 163
17  0 0 0 1 0 0 0 0 0 0  1 164
91  0 0 1 0 0 0 0 0 0 0  1 165
50  0 0 0 0 0 0 0 1 0 0  1 166
65  0 0 0 0 0 0 0 0 1 0  1 167
37  0 0 0 0 0 1 0 0 0 0  1 168
98  0 0 0 0 0 0 0 0 0 1  1 169
90  0 1 0 0 0 0 0 0 0 0  1 170
71  0 0 0 0 0 0 1 0 0 0  1 171
8  0 0 0 0 1 0 0 0 0 0  1 602
72  0 0 0 0 0 0 0 0 0 1  1 173
9  0 1 0 0 0 0 0 0 0 0  1 174
31  0 0 0 1 0 0 0 0 0 0  1 175
49  0 0 0 0 0 0 1 0 0 0  1 176
91  0 0 1 0 0 0 0 0 0 0  1 177
62  0 0 0 0 0 0 0 0 1 0  1 178
90  0 0 0 0 0 0 0 1 0 0  1 179
72  1 0 0 0 0 0 0 0 0 0  1 180
98  0 0 0 0 0 1 0 0 0 0  1 181
38  0 0 0 0 1 0 0 0 0 0  1 602
35  0 0 0 0 1 0 0 0 0 0  1 183
63  0 0 1 0 0 0 0 0 0 0  1 184
25  0 0 0 0 0 1 0 0 0 0  1 185
35  0 0 0 0 0 0 1 0 0 0  1 186
21  0 0 0 0 0 0 0 0 1 0  1 187
47  0 0 0 0 0 0 0 1 0 0  1 188
52  0 0 0 1 0 0 0 0 0 0  1 189
80  0 1 0 0 0 0 0 0 0 0  1 190
39  1 0 0 0 0 0 0 0 0 0  1 191
74  0 0 0 0 0 0 0 0 0 1  1 602
68  0 0 1 0 0 0 0 0 0 0  1 193
24  0 0 0 0 0 1 0 0 0 0  1 194
58  0 0 0 0 0 0 0 0 0 1  1 195
52  0 0 0 0 0 0 0 0 1 0  1 196
5  1 0 0 0 0 0 0 0 0 0  1 197
20  0 0 0 0 0 0 1 0 0 0  1 198
50  0 0 0 1 0 0 0 0 0 0  1 199
57  0 0 0 0 0 0 0 1 0 0  1 200
88  0 1 0 0 0 0 0 0 0 0  1 201
53  0 0 0 0 1 0 0 0 0 0  1 602
32  0 0 0 0 0 0 0 0 1 0  1 203
81  0 1 0 0 0 0 0 0 0 0  1 204
55  0 0 0 0 1 0 0 0 0 0  1 205
40  0 0 0 0 0 0 0 1 0 0  1 206
6  1 0 0 0 0 0 0 0 0 0  1 207
19  0 0 0 0 0 1 0 0 0 0  1 208
81  0 0 0 0 0 0 0 0 0 1  1 209
37  0 0 0 1 0 0 0 0 0 0  1 210
40  0 0 1 0 0 0 0 0 0 0  1 211
9  0 0 0 0 0 0 1 0 0 0  1 602
70  0 0 1 0 0 0 0 0 0 0  1 213
55  0 0 0 1 0 0 0 0 0 0  1 214
21  0 0 0 0 0 0 0 1 0 0  1 215
64  0 0 0 0 1 0 0 0 0 0  1 216
46  0 1 0 0 0 0 0 0 0 0  1 217
25  0 0 0 0 0 0 0 0 1 0  1 218
65  0 0 0 0 0 0 0 0 0 1  1 219
77  1 0 0 0 0 0 0 0 0 0  1 220
65  0 0 0 0 0 1 0 0 0 0  1 221
15  0 0 0 0 0 0 1 0 0 0  1 602
84  0 0 0 0 0 0 0 1 0 0  1 223
89  0 0 0 0 1 0 0 0 0 0  1 224
24  0 0 0 1 0 0 0 0 0 0  1 225
44  0 1 0 0 0 0 0 0 0 0  1 226
85  0 0 1 0 0 0 0 0 0 0  1 227
31  0 0 0 0 0 0 0 0 1 0  1 228
29  0 0 0 0 0 0 0 0 0 1  1 229
83  0 0 0 0 0 0 1 0 0 0  1 230
37  0 0 0 0 0 1 0 0 0 0  1 231
40  1 0 0 0 0 0 0 0 0 0  1 602
80  0 0 0 0 1 0 0 0 0 0  1 233
59  0 0 0 0 0 1 0 0 0 0  1 234
8  1 0 0 0 0 0 0 0 0 0  1 235
30  0 0 1 0 0 0 0 0 0 0  1 236
77  0 0 0 0 0 0 1 0 0 0  1 237
38  0 0 0 1 0 0 0 0 0 0  1 238
80  0 1 0 0 0 0 0 0 0 0  1 239
56  0 0 0 0 0 0 0 1 0 0  1 240
41  0 0 0 0 0 0 0 0 0 1  1 241
97  0 0 0 0 0 0 0 0 1 0  1 602
40  0 0 0 0 0 0 1 0 0 0  1 243
71  0 0 1 0 0 0 0 0 0 0  1 244
91  1 0 0 0 0 0 0 0 0 0  1 245
7  0 0 0 0 0 0 0 1 0 0  1 246
59  0 0 0 0 0 0 0 0 0 1  1 247
80  0 0 0 0 0 0 0 0 1 0  1 248
50  0 0 0 1 0 0 0 0 0 0  1 249
56  0 0 0 0 0 1 0 0 0 0  1 250
17  0 1 0 0 0 0 0 0 0 0  1 251
88  0 0 0 0 1 0 0 0 0 0  1 602
36  0 0 0 0 0 0 0 1 0 0  1 253
10  0 0 0 0 0 0 0 0 0 1  1 254
45  1 0 0 0 0 0 0 0 0 0  1 255
9  0 0 0 0 0 0 1 0 0 0  1 256
54  0 0 0 0 1 0 0 0 0 0  1 257
96  0 0 0 0 0 0 0 0 1 0  1 258
8  0 0 1 0 0 0 0 0 0 0  1 259
77  0 0 0 0 0 1 0 0 0 0  1 260
29  0 1 0 0 0 0 0 0 0 0  1 261
58  0 0 0 1 0 0 0 0 0 0  1 602
99  0 0 0 0 0 0 1 0 0 0  1 263
86  0 0 0 0 0 0 0 0 1 0  1 264
92  0 0 0 1 0 0 0 0 0 0  1 265
28  1 0 0 0 0 0 0 0 0 0  1 266
98  0 1 0 0 0 0 0 0 0 0  1 267
70  0 0 0 0 1 0 0 0 0 0  1 268
87  0 0 0 0 0 1 0 0 0 0  1 269
96  0 0 0 0 0 0 0 0 0 1  1 270
73  0 0 1 0 0 0 0 0 0 0  1 271
27  0 0 0 0 0 0 0 1 0 0  1 602
95  0 1 0 0 0 0 0 0 0 0  1 273
85  0 0 0 1 0 0 0 0 0 0  1 274
56  0 0 0 0 0 1 0 0 0 0  1 275
52  0 0 0 0 1 0 0 0 0 0  1 276
59  1 0 0 0 0 0 0 0 0 0  1 277
41  0 0 1 0 0 0 0 0 0 0  1 278
81  0 0 0 0 0 0 1 0 0 0  1 279
39  0 0 0 0 0 0 0 0 1 0  1 280
32  0 0 0 0 0 0 0 0 0 1  1 281
92  0 0 0 0 0 0 0 1 0 0  1 602
7  0 1 0 0 0 0 0 0 0 0  1 283
69  0 0 0 0 0 0 0 1 0 0  1 284
93  0 0 0 0 1 0 0 0 0 0  1 285
27  0 0 0 0 0 0 1 0 0 0  1 286
22  0 0 0 0 0 1 0 0 0 0  1 287
88  1 0 0 0 0 0 0 0 0 0  1 288
45  0 0 0 0 0 0 0 0 1 0  1 289
60  0 0 0 1 0 0 0 0 0 0  1 290
49  0 0 0 0 0 0 0 0 0 1  1 291
12  0 0 1 0 0 0 0 0 0 0  1 602
33  0 0 0 0 0 0 0 1 0 0  1 293
61  0 0 1 0 0 0 0 0 0 0  1 294
44  0 0 0 0 0 0 0 0 1 0  1 295
26  0 0 0 0 0 1 0 0 0 0  1 296
84  0 1 0 0 0 0 0 0 0 0  1 297
82  0 0 0 0 0 0 1 0 0 0  1 298
68  0 0 0 1 0 0 0 0 0 0  1 299
21  1 0 0 0 0 0 0 0 0 0  1 300
71  0 0 0 0 0 0 0 0 0 1  1 301
99  0 0 0 0 1 0 0 0 0 0  1 602
43  0 0 0 0 0 0 0 0 1 0  1 303
72  1 0 0 0 0 0 0 0 0 0  1 304
30  0 0 0 0 1 0 0 0 0 0  1 305
98  0 0 0 0 0 1 0 0 0 0  1 306
75  0 0 0 0 0 0 0 0 0 1  1 307
26  0 1 0 0 0 0 0 0 0 0  1 308
8  0 0 0 0 0 0 0 1 0 0  1 309
74  0 0 0 0 0 0 1 0 0 0  1 310
19  0 0 0 1 0 0 0 0 0 0  1 311
38  0 0 1 0 0 0 0 0 0 0  1 602
19  0 0 0 0 0 0 1 0 0 0  1 313
67  0 0 1 0 0 0 0 0 0 0  1 314
73  0 0 0 0 0 0 0 0 1 0  1 315
85  0 1 0 0 0 0 0 0 0 0  1 316
26  0 0 0 0 0 0 0 0 0 1  1 317
39  0 0 0 0 1 0 0 0 0 0  1 318
9  0 0 0 0 0 0 0 1 0 0  1 319
23  1 0 0 0 0 0 0 0 0 0  1 320
13  0 0 0 0 0 1 0 0 0 0  1 321
43  0 0 0 1 0 0 0 0 0 0  1 602
72  0 0 0 0 0 0 0 0 1 0  1 323
46  0 0 0 0 0 0 0 1 0 0  1 324
80  0 0 0 0 0 1 0 0 0 0  1 325
93  0 0 0 1 0 0 0 0 0 0  1 326
61  0 0 1 0 0 0 0 0 0 0  1 327
7  0 0 0 0 1 0 0 0 0 0  1 328
42  0 0 0 0 0 0 0 0 0 1  1 329
50  0 1 0 0 0 0 0 0 0 0  1 330
55  1 0 0 0 0 0 0 0 0 0  1 331
57  0 0 0 0 0 0 1 0 0 0  1 602
99  0 0 0 0 1 0 0 0 0 0  1 333
91  1 0 0 0 0 0 0 0 0 0  1 334
11  0 0 0 0 0 0 0 0 0 1  1 335
68  0 0 0 0 0 1 0 0 0 0  1 336
43  0 0 0 0 0 0 0 1 0 0  1 337
96  0 0 0 1 0 0 0 0 0 0  1 338
72  0 0 1 0 0 0 0 0 0 0  1 339
11  0 0 0 0 0 0 0 0 1 0  1 340
60  0 0 0 0 0 0 1 0 0 0  1 341
68  0 1 0 0 0 0 0 0 0 0  1 602
69  0 0 0 0 0 0 0 0 0 1  1 343
43  1 0 0 0 0 0 0 0 0 0  1 344
12  0 0 0 1 0 0 0 0 0 0  1 345
40  0 0 0 0 0 0 0 0 1 0  1 346
70  0 1 0 0 0 0 0 0 0 0  1 347
74  0 0 0 0 0 0 1 0 0 0  1 348
34  0 0 1 0 0 0 0 0 0 0  1 349
7  0 0 0 0 0 1 0 0 0 0  1 350
30  0 0 0 0 1 0 0 0 0 0  1 351
84  0 0 0 0 0 0 0 1 0 0  1 602
99  0 0 0 0 0 0 0 1 0 0  1 353
27  0 0 0 1 0 0 0 0 0 0  1 354
59  0 0 0 0 1 0 0 0 0 0  1 355
72  0 0 0 0 0 1 0 0 0 0  1 356
9  0 0 1 0 0 0 0 0 0 0  1 357
45  0 0 0 0 0 0 1 0 0 0  1 358
49  1 0 0 0 0 0 0 0 0 0  1 359
63  0 0 0 0 0 0 0 0 0 1  1 360
69  0 1 0 0 0 0 0 0 0 0  1 361
60  0 0 0 0 0 0 0 0 1 0  1 602
75  1 0 0 0 0 0 0 0 0 0  1 363
17  0 0 0 1 0 0 0 0 0 0  1 364
91  0 0 1 0 0 0 0 0 0 0  1 365
50  0 0 0 0 0 0 0 1 0 0  1 366
65  0 0 0 0 0 0 0 0 1 0  1 367
37  0 0 0 0 0 1 0 0 0 0  1 368
98  0 0 0 0 0 0 0 0 0 1  1 369
90  0 1 0 0 0 0 0 0 0 0  1 370
71  0 0 0 0 0 0 1 0 0 0  1 371
8  0 0 0 0 1 0 0 0 0 0  1 602
72  0 0 0 0 0 0 0 0 0 1  1 373
9  0 1 0 0 0 0 0 0 0 0  1 374
31  0 0 0 1 0 0 0 0 0 0  1 375
49  0 0 0 0 0 0 1 0 0 0  1 376
91  0 0 1 0 0 0 0 0 0 0  1 377
62  0 0 0 0 0 0 0 0 1 0  1 378
90  0 0 0 0 0 0 0 1 0 0  1 379
72  1 0 0 0 0 0 0 0 0 0  1 380
98  0 0 0 0 0 1 0 0 0 0  1 381
38  0 0 0 0 1 0 0 0 0 0  1 602
35  0 0 0 0 1 0 0 0 0 0  1 383
63  0 0 1 0 0 0 0 0 0 0  1 384
25  0 0 0 0 0 1 0 0 0 0  1 385
35  0 0 0 0 0 0 1 0 0 0  1 386
21  0 0 0 0 0 0 0 0 1 0  1 387
47  0 0 0 0 0 0 0 1 0 0  1 388
52  0 0 0 1 0 0 0 0 0 0  1 389
80  0 1 0 0 0 0 0 0 0 0  1 390
39  1 0 0 0 0 0 0 0 0 0  1 391
74  0 0 0 0 0 0 0 0 0 1  1 602
68  0 0 1 0 0 0 0 0 0 0  1 393
24  0 0 0 0 0 1 0 0 0 0  1 394
58  0 0 0 0 0 0 0 0 0 1  1 395
52  0 0 0 0 0 0 0 0 1 0  1 396
5  1 0 0 0 0 0 0 0 0 0  1 397
20  0 0 0 0 0 0 1 0 0 0  1 398
50  0 0 0 1 0 0 0 0 0 0  1 399
57  0 0 0 0 0 0 0 1 0 0  1 400
88  0 1 0 0 0 0 0 0 0 0  1 401
53  0 0 0 0 1 0 0 0 0 0  1 602
32  0 0 0 0 0 0 0 0 1 0  1 403
81  0 1 0 0 0 0 0 0 0 0  1 404
55  0 0 0 0 1 0 0 0 0 0  1 405
40  0 0 0 0 0 0 0 1 0 0  1 406
6  1 0 0 0 0 0 0 0 0 0  1 407
19  0 0 0 0 0 1 0 0 0 0  1 408
81  0 0 0 0 0 0 0 0 0 1  1 409
37  0 0 0 1 0 0 0 0 0 0  1 410
40  0 0 1 0 0 0 0 0 0 0  1 411
9  0 0 0 0 0 0 1 0 0 0  1 602
70  0 0 1 0 0 0 0 0 0 0  1 413
55  0 0 0 1 0 0 0 0 0 0  1 414
21  0 0 0 0 0 0 0 1 0 0  1 415
64  0 0 0 0 1 0 0 0 0 0  1 416
46  0 1 0 0 0 0 0 0 0 0  1 417
25  0 0 0 0 0 0 0 0 1 0  1 418
65  0 0 0 0 0 0 0 0 0 1  1 419
77  1 0 0 0 0 0 0 0 0 0  1 420
65  0 0 0 0 0 1 0 0 0 0  1 421
15  0 0 0 0 0 0 1 0 0 0  1 602
84  0 0 0 0 0 0 0 1 0 0  1 423
89  0 0 0 0 1 0 0 0 0 0  1 424
24  0 0 0 1 0 0 0 0 0 0  1 425
44  0 1 0 0 0 0 0 0 0 0  1 426
85  0 0 1 0 0 0 0 0 0 0  1 427
31  0 0 0 0 0 0 0 0 1 0  1 428
29  0 0 0 0 0 0 0 0 0 1  1 429
83  0 0 0 0 0 0 1 0 0 0  1 430
37  0 0 0 0 0 1 0 0 0 0  1 431
40  1 0 0 0 0 0 0 0 0 0  1 602
80  0 0 0 0 1 0 0 0 0 0  1 433
59  0 0 0 0 0 1 0 0 0 0  1 434
8  1 0 0 0 0 0 0 0 0 0  1 435
30  0 0 1 0 0 0 0 0 0 0  1 436
77  0 0 0 0 0 0 1 0 0 0  1 437
38  0 0 0 1 0 0 0 0 0 0  1 438
80  0 1 0 0 0 0 0 0 0 0  1 439
56  0 0 0 0 0 0 0 1 0 0  1 440
41  0 0 0 0 0 0 0 0 0 1  1 441
97  0 0 0 0 0 0 0 0 1 0  1 602
40  0 0 0 0 0 0 1 0 0 0  1 443
71  0 0 1 0 0 0 0 0 0 0  1 444
91  1 0 0 0 0 0 0 0 0 0  1 445
7  0 0 0 0 0 0 0 1 0 0  1 446
59  0 0 0 0 0 0 0 0 0 1  1 447
80  0 0 0 0 0 0 0 0 1 0  1 448
50  0 0 0 1 0 0 0 0 0 0  1 449
56  0 0 0 0 0 1 0 0 0 0  1 450
17  0 1 0 0 0 0 0 0 0 0  1 451
88  0 0 0 0 1 0 0 0 0 0  1 602
36  0 0 0 0 0 0 0 1 0 0  1 453
10  0 0 0 0 0 0 0 0 0 1  1 454
45  1 0 0 0 0 0 0 0 0 0  1 455
9  0 0 0 0 0 0 1 0 0 0  1 456
54  0 0 0 0 1 0 0 0 0 0  1 457
96  0 0 0 0 0 0 0 0 1 0  1 458
8  0 0 1 0 0 0 0 0 0 0  1 459
77  0 0 0 0 0 1 0 0 0 0  1 460
29  0 1 0 0 0 0 0 0 0 0  1 461
58  0 0 0 1 0 0 0 0 0 0  1 602
99  0 0 0 0 0 0 1 0 0 0  1 463
86  0 0 0 0 0 0 0 0 1 0  1 464
92  0 0 0 1 0 0 0 0 0 0  1 465
28  1 0 0 0 0 0 0 0 0 0  1 466
98  0 1 0 0 0 0 0 0 0 0  1 467
70  0 0 0 0 1 0 0 0 0 0  1 468
87  0 0 0 0 0 1 0 0 0 0  1 469
96  0 0 0 0 0 0 0 0 0 1  1 470
73  0 0 1 0 0 0 0 0 0 0  1 471
27  0 0 0 0 0 0 0 1 0 0  1 602
95  0 1 0 0 0 0 0 0 0 0  1 473
85  0 0 0 1 0 0 0 0 0 0  1 474
56  0 0 0 0 0 1 0 0 0 0  1 475
52  0 0 0 0 1 0 0 0 0 0  1 476
59  1 0 0 0 0 0 0 0 0 0  1 477
41  0 0 1 0 0 0 0 0 0 0  1 478
81  0 0 0 0 0 0 1 0 0 0  1 479
39  0 0 0 0 0 0 0 0 1 0  1 480
32  0 0 0 0 0 0 0 0 0 1  1 481
92  0 0 0 0 0 0 0 1 0 0  1 602
7  0 1 0 0 0 0 0 0 0 0  1 483
69  0 0 0 0 0 0 0 1 0 0  1 484
93  0 0 0 0 1 0 0 0 0 0  1 485
27  0 0 0 0 0 0 1 0 0 0  1 486
22  0 0 0 0 0 1 0 0 0 0  1 487
88  1 0 0 0 0 0 0 0 0 0  1 488
45  0 0 0 0 0 0 0 0 1 0  1 489
60  0 0 0 1 0 0 0 0 0 0  1 490
49  0 0 0 0 0 0 0 0 0 1  1 491
12  0 0 1 0 0 0 0 0 0 0  1 602
33  0 0 0 0 0 0 0 1 0 0  1 493
61  0 0 1 0 0 0 0 0 0 0  1 494
44  0 0 0 0 0 0 0 0 1 0  1 495
26  0 0 0 0 0 1 0 0 0 0  1 496
84  0 1 0 0 0 0 0 0 0 0  1 497
82  0 0 0 0 0 0 1 0 0 0  1 498
68  0 0 0 1 0 0 0 0 0 0  1 499
21  1 0 0 0 0 0 0 0 0 0  1 500
71  0 0 0 0 0 0 0 0 0 1  1 501
99  0 0 0 0 1 0 0 0 0 0  1 602
43  0 0 0 0 0 0 0 0 1 0  1 503
72  1 0 0 0 0 0 0 0 0 0  1 504
30  0 0 0 0 1 0 0 0 0 0  1 505
98  0 0 0 0 0 1 0 0 0 0  1 506
75  0 0 0 0 0 0 0 0 0 1  1 507
26  0 1 0 0 0 0 0 0 0 0  1 508
8  0 0 0 0 0 0 0 1 0 0  1 509
74  0 0 0 0 0 0 1 0 0 0  1 510
19  0 0 0 1 0 0 0 0 0 0  1 511
38  0 0 1 0 0 0 0 0 0 0  1 602
19  0 0 0 0 0 0 1 0 0 0  1 513
67  0 0 1 0 0 0 0 0 0 0  1 514
73  0 0 0 0 0 0 0 0 1 0  1 515
85  0 1 0 0 0 0 0 0 0 0  1 516
26  0 0 0 0 0 0 0 0 0 1  1 517
39  0 0 0 0 1 0 0 0 0 0  1 518
9  0 0 0 0 0 0 0 1 0 0  1 519
23  1 0 0 0 0 0 0 0 0 0  1 520
13  0 0 0 0 0 1 0 0 0 0  1 521
43  0 0 0 1 0 0 0 0 0 0  1 602
72  0 0 0 0 0 0 0 0 1 0  1 523
46  0 0 0 0 0 0 0 1 0 0  1 524
80  0 0 0 0 0 1 0 0 0 0  1 525
93  0 0 0 1 0 0 0 0 0 0  1 526
61  0 0 1 0 0 0 0 0 0 0  1 527
7  0 0 0 0 1 0 0 0 0 0  1 528
42  0 0 0 0 0 0 0 0 0 1  1 529
50  0 1 0 0 0 0 0 0 0 0  1 530
55  1 0 0 0 0 0 0 0 0 0  1 531
57  0 0 0 0 0 0 1 0 0 0  1 602
99  0 0 0 0 1 0 0 0 0 0  1 533
91  1 0 0 0 0 0 0 0 0 0  1 534
11  0 0 0 0 0 0 0 0 0 1  1 535
68  0 0 0 0 0 1 0 0 0 0  1 536
43  0 0 0 0 0 0 0 1 0 0  1 537
96  0 0 0 1 0 0 0 0 0 0  1 538
72  0 0 1 0 0 0 0 0 0 0  1 539
11  0 0 0 0 0 0 0 0 1 0  1 540
60  0 0 0 0 0 0 1 0 0 0  1 541
68  0 1 0 0 0 0 0 0 0 0  1 602
69  0 0 0 0 0 0 0 0 0 1  1 543
43  1 0 0 0 0 0 0 0 0 0  1 544
12  0 0 0 1 0 0 0 0 0 0  1 545
40  0 0 0 0 0 0 0 0 1 0  1 546
70  0 1 0 0 0 0 0 0 0 0  1 547
74  0 0 0 0 0 0 1 0 0 0  1 548
34  0 0 1 0 0 0 0 0 0 0  1 549
7  0 0 0 0 0 1 0 0 0 0  1 550
30  0 0 0 0 1 0 0 0 0 0  1 551
84  0 0 0 0 0 0 0 1 0 0  1 602
99  0 0 0 0 0 0 0 1 0 0  1 553
27  0 0 0 1 0 0 0 0 0 0  1 554
59  0 0 0 0 1 0 0 0 0 0  1 555
72  0 0 0 0 0 1 0 0 0 0  1 556
9  0 0 1 0 0 0 0 0 0 0  1 557
45  0 0 0 0 0 0 1 0 0 0  1 558
49  1 0 0 0 0 0 0 0 0 0  1 559
63  0 0 0 0 0 0 0 0 0 1  1 560
69  0 1 0 0 0 0 0 0 0 0  1 561
60  0 0 0 0 0 0 0 0 1 0  1 602
75  1 0 0 0 0 0 0 0 0 0  1 563
17  0 0 0 1 0 0 0 0 0 0  1 564
91  0 0 1 0 0 0 0 0 0 0  1 565
50  0 0 0 0 0 0 0 1 0 0  1 566
65  0 0 0 0 0 0 0 0 1 0  1 567
37  0 0 0 0 0 1 0 0 0 0  1 568
98  0 0 0 0 0 0 0 0 0 1  1 569
90  0 1 0 0 0 0 0 0 0 0  1 570
71  0 0 0 0 0 0 1 0 0 0  1 571
8  0 0 0 0 1 0 0 0 0 0  1 602
72  0 0 0 0 0 0 0 0 0 1  1 573
9  0 1 0 0 0 0 0 0 0 0  1 574
31  0 0 0 1 0 0 0 0 0 0  1 575
49  0 0 0 0 0 0 1 0 0 0  1 576
91  0 0 1 0 0 0 0 0 0 0  1 577
62  0 0 0 0 0 0 0 0 1 0  1 578
90  0 0 0 0 0 0 0 1 0 0  1 579
72  1 0 0 0 0 0 0 0 0 0  1 580
98  0 0 0 0 0 1 0 0 0 0  1 581
38  0 0 0 0 1 0 0 0 0 0  1 602
35  0 0 0 0 1 0 0 0 0 0  1 583
63  0 0 1 0 0 0 0 0 0 0  1 584
25  0 0 0 0 0 1 0 0 0 0  1 585
35  0 0 0 0 0 0 1 0 0 0  1 586
21  0 0 0 0 0 0 0 0 1 0  1 587
47  0 0 0 0 0 0 0 1 0 0  1 588
52  0 0 0 1 0 0 0 0 0 0  1 589
80  0 1 0 0 0 0 0 0 0 0  1 590
39  1 0 0 0 0 0 0 0 0 0  1 591
74  0 0 0 0 0 0 0 0 0 1  1 602
68  0 0 1 0 0 0 0 0 0 0  1 593
24  0 0 0 0 0 1 0 0 0 0  1 594
58  0 0 0 0 0 0 0 0 0 1  1 595
52  0 0 0 0 0 0 0 0 1 0  1 596
5  1 0 0 0 0 0 0 0 0 0  1 597
20  0 0 0 0 0 0 1 0 0 0  1 598
50  0 0 0 1 0 0 0 0 0 0  1 599
57  0 0 0 0 0 0 0 1 0 0  1 600
88  0 1 0 0 0 0 0 0 0 0  1 601
53  0 0 0 0 1 0 0 0 0 0  1 602
0  0 0 0 0 0 0 0 0 0 0  0
